SDVRP instances/custom_instances/p01_25_splitx10_0.vrp
NAME:p01_25_splitx10_
BEST_KNOWN: 0
COMMENT: 0
DIMENSION: 261
CAPACITY: 1600
EDGE_WEIGHT_FORMAT: FUNCTION
EDGE_WEIGHT_TYPE: EXACT_2D
NODE_COORD_SECTION
1 0.00000 0.00000
2 32 -35
3 32 -35
4 32 -35
5 32 -35
6 32 -35
7 39 16
8 39 16
9 39 16
10 39 16
11 39 16
12 -40 31
13 -40 31
14 -40 31
15 -40 31
16 -40 31
17 -40 31
18 -40 31
19 -40 31
20 9 -6
21 9 -6
22 9 -6
23 -29 -21
24 -29 -21
25 -29 -21
26 -29 -21
27 -29 -21
28 -29 -21
29 21 22
30 21 22
31 21 22
32 21 22
33 21 22
34 21 22
35 20 29
36 20 29
37 20 29
38 20 29
39 20 29
40 20 29
41 20 29
42 37 -14
43 37 -14
44 37 -14
45 37 -14
46 37 -14
47 37 -14
48 37 -14
49 37 -14
50 -32 -50
51 -32 -50
52 -32 -50
53 -32 -50
54 -32 -50
55 -32 -50
56 -32 -50
57 -34 -27
58 -34 -27
59 -34 -27
60 -34 -27
61 -34 -27
62 -34 -27
63 -44 -6
64 -44 -6
65 -44 -6
66 -44 -6
67 5 -6
68 5 -6
69 5 -6
70 5 -6
71 5 -6
72 5 -6
73 -42 36
74 -42 36
75 -42 36
76 -42 36
77 27 49
78 27 49
79 27 49
80 27 49
81 27 49
82 34 40
83 34 40
84 34 40
85 34 40
86 34 40
87 46 -49
88 46 -49
89 46 -49
90 46 -49
91 46 -49
92 46 -49
93 46 -49
94 -11 50
95 -11 50
96 -11 50
97 -11 50
98 -11 50
99 -42 1
100 -42 1
101 -42 1
102 -42 1
103 35 -6
104 35 -6
105 35 -6
106 -27 -37
107 -27 -37
108 -27 -37
109 38 45
110 -49 -45
111 -49 -45
112 -49 -45
113 -49 -45
114 -49 -45
115 21 -14
116 21 -14
117 21 -14
118 21 -14
119 21 -14
120 21 -14
121 31 20
122 31 20
123 31 20
124 31 20
125 31 20
126 -43 28
127 -43 28
128 -43 28
129 -43 28
130 -43 28
131 -43 28
132 -40 8
133 -40 8
134 -40 8
135 -40 8
136 -40 8
137 -40 8
138 -40 8
139 29 -12
140 29 -12
141 29 -12
142 29 -12
143 29 -12
144 42 28
145 42 28
146 42 28
147 29 44
148 29 44
149 29 44
150 29 44
151 -34 23
152 -34 23
153 -34 23
154 -34 23
155 -34 23
156 44 14
157 44 14
158 44 14
159 44 14
160 44 14
161 44 14
162 31 47
163 31 47
164 31 47
165 31 47
166 31 47
167 31 47
168 31 47
169 -21 41
170 -21 41
171 -21 41
172 -21 41
173 -21 41
174 -21 41
175 -21 41
176 -40 32
177 -40 32
178 5 13
179 5 13
180 5 13
181 5 13
182 5 13
183 13 -21
184 13 -21
185 13 -21
186 -42 49
187 -42 49
188 -42 49
189 -42 49
190 -42 49
191 -42 49
192 -3 -6
193 -3 -6
194 -3 -6
195 -3 -6
196 46 37
197 46 37
198 46 37
199 46 37
200 50 -29
201 50 -29
202 50 -29
203 50 -29
204 50 -29
205 50 -29
206 -39 46
207 -39 46
208 -39 46
209 -39 46
210 -13 18
211 -13 18
212 -13 18
213 -13 18
214 -13 18
215 -15 -17
216 -15 -17
217 -15 -17
218 -15 -17
219 -47 32
220 -47 32
221 -47 32
222 -47 32
223 42 -41
224 42 -41
225 42 -41
226 42 -41
227 42 -41
228 42 -41
229 42 -41
230 42 -41
231 -28 2
232 -28 2
233 -28 2
234 -28 2
235 -28 2
236 -28 2
237 -28 2
238 -7 3
239 -7 3
240 -7 3
241 -7 3
242 31 30
243 31 30
244 31 30
245 31 30
246 31 30
247 31 30
248 26 0
249 26 0
250 26 0
251 26 0
252 26 0
253 26 0
254 26 0
255 26 0
256 -38 -39
257 -38 -39
258 -38 -39
259 -38 -39
260 -38 -39
261 -38 -39
DEMAND_SECTION
1 0
2 320
3 320
4 80
5 16
6 4
7 160
8 16
9 16
10 16
11 12
12 320
13 320
14 80
15 16
16 16
17 16
18 16
19 6
20 320
21 16
22 14
23 160
24 16
25 16
26 16
27 16
28 6
29 320
30 160
31 80
32 16
33 16
34 8
35 320
36 80
37 16
38 16
39 16
40 16
41 6
42 320
43 160
44 80
45 16
46 16
47 16
48 16
49 6
50 320
51 320
52 80
53 16
54 16
55 16
56 12
57 160
58 80
59 16
60 16
61 16
62 12
63 320
64 320
65 16
66 4
67 320
68 320
69 16
70 16
71 16
72 2
73 320
74 160
75 80
76 10
77 160
78 16
79 16
80 16
81 2
82 320
83 80
84 16
85 16
86 8
87 320
88 80
89 16
90 16
91 16
92 16
93 6
94 320
95 160
96 16
97 16
98 8
99 320
100 160
101 80
102 10
103 160
104 80
105 10
106 320
107 160
108 10
109 320
110 320
111 160
112 16
113 16
114 8
115 320
116 320
117 80
118 16
119 16
120 8
121 320
122 160
123 80
124 16
125 4
126 320
127 80
128 16
129 16
130 16
131 2
132 320
133 320
134 80
135 16
136 16
137 16
138 2
139 320
140 320
141 16
142 16
143 8
144 320
145 80
146 10
147 320
148 320
149 16
150 14
151 320
152 16
153 16
154 16
155 12
156 160
157 80
158 16
159 16
160 16
161 2
162 320
163 320
164 80
165 16
166 16
167 16
168 12
169 320
170 160
171 16
172 16
173 16
174 16
175 6
176 320
177 10
178 320
179 16
180 16
181 16
182 12
183 320
184 160
185 10
186 320
187 160
188 16
189 16
190 16
191 12
192 320
193 320
194 16
195 4
196 320
197 160
198 80
199 10
200 160
201 80
202 16
203 16
204 16
205 12
206 320
207 320
208 16
209 4
210 320
211 160
212 80
213 16
214 4
215 320
216 320
217 80
218 10
219 160
220 80
221 16
222 4
223 320
224 160
225 80
226 16
227 16
228 16
229 16
230 6
231 320
232 160
233 16
234 16
235 16
236 16
237 6
238 320
239 16
240 16
241 8
242 320
243 160
244 16
245 16
246 16
247 12
248 320
249 320
250 80
251 16
252 16
253 16
254 16
255 6
256 320
257 16
258 16
259 16
260 16
261 6
DEPOT_SECTION
1
-1
EOF