SDVRP instances/custom_instances/p01_25_splitx10_0.sol
260 -2 5 4 1 3 45 48 47 46 42 41 104 103 102 -10 8 7 9 6 157 155 160 158 156 159 145 143 144 124 120 121 122 123 -21 20 19 116 114 119 117 115 118 182 184 183 -22 23 25 27 26 24 59 58 61 60 57 56 109 110 111 112 113 255 259 257 256 258 260 216 -31 29 33 30 32 28 245 246 242 244 243 241 34 38 39 35 37 40 -36 146 149 147 148 108 195 197 198 196 -43 44 199 204 202 200 201 203 92 88 87 91 90 86 89 228 227 224 222 223 226 229 225 -50 55 52 49 54 53 51 106 105 107 215 -68 66 70 69 71 67 194 193 192 191 -81 84 83 82 85 167 165 166 163 161 162 164 78 80 76 79 77 178 179 180 181 -99 101 100 98 65 64 63 62 214 217 -125 128 130 129 127 126 218 221 220 219 75 74 72 73 175 -132 131 137 133 136 134 135 236 235 232 233 234 231 230 -141 142 138 140 139 250 252 251 248 247 249 253 254 -176 16 12 14 17 15 18 11 13 154 151 150 152 153 239 238 237 240 -177 97 94 93 96 95 169 173 170 172 168 174 171 210 212 213 -188 185 189 190 186 187 206 208 207 205 209 211 0 





OBJ=
1772.122
BEST_KNOWN=
0.000